00:00.1 clingo version 5.5.1
00:00.1 Reading from ...ols/../encodings/CTW_nat_optimal_V2.lp ...
00:32.62 Solving...
29:59.991 UNKNOWN
29:59.991 
29:59.991 TIME LIMIT   : 1
29:59.991 Models       : 0+
29:59.991 Calls        : 1
29:59.991 Time         : 1800.000s (Solving: 1767.93s 1st Model: 0.00s Unsat: 0.00s)
29:59.991 CPU Time     : 1799.925s
